% From SICStus example dominoes.pl (instance 51)
% It has 110 solutions
r = 6;
c = 7;
high = 5;
board = array2d(1..r, 1..c, 
     [
       3,4,2,1,1,2,0,
       0,4,1,5,1,4,4,
       2,0,0,5,5,3,3,
       4,0,1,3,0,3,2,
       5,0,3,5,4,1,2,
       4,5,2,5,1,3,2
    ])
;
